p cnf 80 72
-1 48 -2 66 69 -76 0 
-3 69 -76 0 
-4 70 -69 -76 0 
-5 -6 60 69 -76 0 
-6 60 69 -76 0 
-7 29 69 -76 0 
-8 44 71 -69 -76 0 
-9 46 -10 13 -11 69 -76 0 
-12 35 -13 10 -11 69 -76 0 
-14 69 -76 0 
-15 25 -16 69 -76 0 
-17 69 -76 0 
-18 -6 60 69 -76 0 
-19 41 68 69 -76 0 
-8 44 69 -76 0 
-20 43 -21 33 38 63 -8 44 -22 72 -69 -76 -64 0 
-6 60 -23 69 -76 0 
-24 -25 15 -16 69 -76 0 
-8 44 73 -3 -69 -76 0 
-8 44 74 -53 -69 -76 0 
-26 69 -76 0 
-8 44 75 -69 -76 0 
-8 44 -27 71 -69 -76 0 
-8 44 -28 -29 7 71 -69 -76 0 
-26 71 -69 -76 0 
-30 69 -76 0 
-31 76 -69 0 
-32 69 -76 0 
-33 21 38 63 69 -76 0 
-34 69 -76 0 
-35 12 -8 44 71 -69 -76 0 
-9 46 -10 13 69 -76 0 
-12 35 -13 10 -36 69 -76 0 
-37 39 71 -69 -76 0 
-38 21 33 63 -39 37 -40 47 71 -69 -76 0 
-41 19 68 69 -76 0 
-42 69 -76 0 
-43 20 -8 44 71 -69 -76 0 
-44 8 69 -76 0 
-45 69 -76 0 
-12 35 -13 10 -46 9 69 -76 0 
-12 35 -8 44 -47 40 -18 69 -76 0 
-2 66 69 -76 0 
-12 35 -8 44 -48 1 -42 69 -76 0 
-8 44 -23 69 -76 0 
-49 69 -76 0 
-35 12 -36 -23 69 -76 0 
-50 69 -76 0 
-24 71 -69 -76 0 
-51 77 -69 -76 0 
-52 78 -28 -69 -76 0 
-53 69 -76 0 
-54 69 -76 0 
-18 69 -76 0 
-55 -8 44 71 -69 -76 0 
-56 -8 44 71 -69 -76 0 
-57 69 -76 0 
-58 69 -76 0 
-8 44 -59 69 -76 0 
-5 -60 6 -8 44 79 -69 -76 0 
-53 -61 71 -69 -76 0 
-2 66 69 -76 0 
-20 43 -62 -23 69 -76 0 
-63 21 33 38 72 -69 -76 -64 0 
-12 35 69 -76 0 
-64 71 -69 -76 0 
-65 80 -69 -76 0 
-5 69 -76 0 
-66 2 69 -76 0 
-67 69 -76 0 
-1 48 69 -76 0 
-68 19 41 69 -76 0 
